70
1444
10
7
77
88
17
34
20
73
78
6
47
0 1
0 3
0 7
0 8
0 9
0 11
0 13
0 14
0 18
0 19
0 20
0 21
0 22
0 24
0 25
0 26
0 27
0 28
0 29
0 31
0 35
0 36
0 37
0 38
0 39
0 42
0 45
0 47
0 49
0 50
0 51
0 52
0 53
0 55
0 56
0 57
0 59
0 60
0 62
0 64
0 65
0 66
0 69
1 3
1 4
1 5
1 7
1 9
1 10
1 11
1 12
1 18
1 20
1 21
1 22
1 24
1 25
1 26
1 29
1 30
1 32
1 34
1 36
1 38
1 39
1 40
1 44
1 45
1 46
1 47
1 49
1 50
1 51
1 52
1 56
1 57
1 58
1 59
1 60
1 62
1 64
1 66
1 69
2 3
2 5
2 7
2 8
2 9
2 10
2 11
2 14
2 15
2 16
2 17
2 18
2 19
2 20
2 21
2 22
2 25
2 28
2 31
2 32
2 33
2 34
2 37
2 39
2 40
2 42
2 45
2 47
2 48
2 50
2 51
2 53
2 54
2 56
2 57
2 58
2 59
2 60
2 63
2 64
2 66
2 67
2 68
3 7
3 8
3 9
3 11
3 12
3 14
3 15
3 17
3 18
3 19
3 21
3 22
3 23
3 25
3 26
3 27
3 28
3 30
3 31
3 32
3 33
3 36
3 40
3 42
3 43
3 44
3 45
3 46
3 47
3 48
3 49
3 50
3 52
3 53
3 55
3 56
3 58
3 59
3 60
3 61
3 62
3 63
3 64
3 66
4 7
4 8
4 9
4 13
4 14
4 17
4 21
4 22
4 23
4 25
4 26
4 27
4 28
4 29
4 32
4 33
4 34
4 36
4 38
4 39
4 41
4 44
4 45
4 47
4 49
4 50
4 55
4 57
4 60
4 62
4 63
4 64
4 65
4 66
4 67
5 7
5 9
5 10
5 11
5 12
5 13
5 15
5 17
5 18
5 21
5 22
5 23
5 24
5 26
5 27
5 29
5 30
5 31
5 32
5 33
5 34
5 37
5 39
5 40
5 43
5 44
5 45
5 46
5 47
5 49
5 50
5 52
5 55
5 56
5 57
5 58
5 59
5 60
5 62
5 63
5 67
5 68
5 69
6 7
6 8
6 10
6 12
6 13
6 16
6 17
6 18
6 19
6 22
6 23
6 24
6 25
6 26
6 28
6 33
6 34
6 38
6 39
6 41
6 42
6 44
6 45
6 46
6 47
6 48
6 50
6 51
6 52
6 53
6 55
6 56
6 57
6 59
6 60
6 63
6 67
6 68
6 69
7 10
7 11
7 12
7 13
7 16
7 17
7 18
7 20
7 23
7 24
7 25
7 27
7 28
7 33
7 34
7 35
7 37
7 39
7 40
7 42
7 44
7 45
7 46
7 47
7 49
7 51
7 52
7 53
7 54
7 55
7 56
7 57
7 58
7 62
7 63
7 67
7 68
7 69
8 9
8 10
8 11
8 16
8 18
8 19
8 20
8 22
8 24
8 25
8 26
8 27
8 28
8 29
8 34
8 36
8 38
8 40
8 41
8 42
8 43
8 44
8 46
8 47
8 49
8 52
8 53
8 54
8 56
8 57
8 58
8 61
8 63
8 66
9 11
9 12
9 14
9 15
9 16
9 17
9 18
9 20
9 21
9 22
9 23
9 24
9 25
9 26
9 30
9 32
9 34
9 38
9 39
9 40
9 43
9 46
9 47
9 48
9 50
9 52
9 53
9 54
9 55
9 56
9 57
9 58
9 59
9 61
9 64
9 65
9 69
10 11
10 12
10 13
10 15
10 18
10 19
10 20
10 21
10 23
10 24
10 25
10 26
10 27
10 28
10 30
10 31
10 36
10 39
10 41
10 43
10 45
10 47
10 48
10 49
10 52
10 55
10 56
10 57
10 58
10 59
10 60
10 61
10 64
10 66
10 67
10 68
10 69
11 12
11 14
11 15
11 18
11 19
11 22
11 23
11 25
11 27
11 28
11 30
11 32
11 33
11 34
11 36
11 38
11 39
11 40
11 41
11 42
11 43
11 47
11 48
11 51
11 53
11 55
11 56
11 57
11 58
11 59
11 61
11 62
11 63
11 64
11 65
11 66
11 67
11 68
11 69
12 13
12 14
12 16
12 17
12 18
12 20
12 23
12 24
12 25
12 27
12 28
12 31
12 34
12 35
12 36
12 39
12 40
12 44
12 46
12 47
12 48
12 51
12 52
12 53
12 54
12 55
12 57
12 60
12 61
12 68
13 16
13 19
13 20
13 21
13 22
13 23
13 24
13 25
13 26
13 30
13 31
13 32
13 34
13 35
13 36
13 38
13 41
13 42
13 45
13 48
13 50
13 53
13 54
13 57
13 58
13 59
13 60
13 62
13 63
13 65
13 67
14 16
14 18
14 20
14 23
14 25
14 26
14 28
14 29
14 31
14 32
14 34
14 35
14 37
14 38
14 39
14 40
14 41
14 43
14 44
14 47
14 48
14 51
14 52
14 53
14 54
14 55
14 59
14 60
14 63
14 66
14 67
14 69
15 16
15 17
15 18
15 19
15 25
15 28
15 31
15 33
15 34
15 36
15 37
15 42
15 43
15 45
15 47
15 49
15 50
15 51
15 53
15 54
15 55
15 56
15 57
15 58
15 59
15 60
15 61
15 64
15 65
15 68
15 69
16 18
16 19
16 20
16 21
16 23
16 25
16 26
16 27
16 29
16 31
16 35
16 37
16 38
16 40
16 42
16 43
16 44
16 45
16 48
16 50
16 51
16 53
16 54
16 55
16 60
16 62
16 63
16 64
16 66
16 67
16 68
17 20
17 21
17 22
17 24
17 25
17 32
17 33
17 34
17 35
17 37
17 43
17 46
17 47
17 50
17 51
17 52
17 53
17 56
17 58
17 59
17 61
17 63
17 65
17 67
18 19
18 21
18 22
18 23
18 24
18 25
18 26
18 28
18 29
18 30
18 31
18 33
18 34
18 36
18 37
18 38
18 40
18 42
18 45
18 46
18 47
18 49
18 50
18 53
18 55
18 56
18 57
18 58
18 59
18 60
18 61
18 63
18 64
18 65
18 66
18 68
18 69
19 20
19 21
19 22
19 23
19 24
19 27
19 30
19 32
19 33
19 34
19 35
19 38
19 42
19 43
19 44
19 46
19 50
19 51
19 53
19 54
19 55
19 56
19 57
19 59
19 60
19 61
19 62
19 63
19 64
19 65
19 66
19 67
19 69
20 21
20 22
20 23
20 24
20 27
20 28
20 29
20 31
20 32
20 33
20 34
20 36
20 37
20 40
20 41
20 42
20 45
20 46
20 49
20 51
20 54
20 57
20 58
20 62
20 63
20 65
20 69
21 22
21 23
21 24
21 26
21 30
21 31
21 32
21 34
21 35
21 37
21 38
21 39
21 40
21 44
21 46
21 50
21 52
21 53
21 55
21 56
21 57
21 62
21 64
21 65
21 66
21 67
21 68
21 69
22 23
22 26
22 27
22 28
22 35
22 39
22 40
22 43
22 45
22 48
22 50
22 51
22 54
22 55
22 57
22 59
22 63
22 66
22 67
22 68
23 24
23 25
23 28
23 29
23 30
23 33
23 34
23 35
23 37
23 39
23 40
23 41
23 42
23 43
23 46
23 50
23 51
23 55
23 61
23 62
23 63
23 64
23 65
23 67
23 68
23 69
24 25
24 26
24 27
24 28
24 30
24 32
24 33
24 35
24 36
24 39
24 41
24 43
24 45
24 51
24 52
24 53
24 55
24 58
24 59
24 62
24 64
24 65
24 67
24 68
24 69
25 26
25 29
25 30
25 31
25 32
25 33
25 34
25 35
25 37
25 39
25 40
25 41
25 43
25 44
25 47
25 50
25 51
25 52
25 53
25 54
25 55
25 56
25 58
25 59
25 61
25 62
25 63
25 66
25 68
26 27
26 29
26 32
26 33
26 35
26 36
26 38
26 40
26 42
26 43
26 44
26 46
26 48
26 49
26 51
26 52
26 53
26 54
26 56
26 59
26 60
26 61
26 62
26 63
26 66
26 69
27 28
27 29
27 30
27 32
27 33
27 36
27 37
27 39
27 40
27 44
27 46
27 47
27 48
27 50
27 54
27 56
27 58
27 59
27 61
27 62
27 63
27 64
27 66
27 67
27 68
28 29
28 31
28 32
28 34
28 37
28 38
28 39
28 40
28 41
28 47
28 48
28 52
28 58
28 59
28 62
28 63
28 64
28 65
28 66
28 67
28 68
29 30
29 32
29 33
29 37
29 41
29 42
29 44
29 46
29 47
29 48
29 49
29 50
29 51
29 53
29 54
29 56
29 59
29 61
29 63
29 66
29 67
30 31
30 36
30 37
30 38
30 39
30 41
30 42
30 44
30 45
30 47
30 48
30 49
30 54
30 61
30 62
30 64
30 65
30 67
30 68
30 69
31 32
31 33
31 35
31 36
31 38
31 39
31 40
31 42
31 46
31 49
31 51
31 52
31 53
31 56
31 58
31 59
31 60
31 61
31 62
31 67
31 69
32 33
32 34
32 36
32 37
32 40
32 41
32 42
32 43
32 45
32 46
32 47
32 49
32 50
32 53
32 55
32 56
32 57
32 61
32 63
32 64
32 65
32 67
32 68
32 69
33 34
33 36
33 37
33 38
33 39
33 41
33 44
33 45
33 46
33 48
33 49
33 50
33 53
33 54
33 55
33 56
33 57
33 59
33 60
33 62
33 64
33 65
33 66
33 68
33 69
34 37
34 38
34 40
34 42
34 43
34 46
34 48
34 49
34 50
34 52
34 53
34 55
34 58
34 60
34 62
34 64
34 65
34 66
34 68
35 36
35 37
35 38
35 40
35 41
35 42
35 45
35 47
35 48
35 52
35 54
35 56
35 57
35 61
35 65
35 67
35 68
35 69
36 37
36 38
36 39
36 41
36 42
36 43
36 45
36 49
36 50
36 53
36 54
36 55
36 56
36 57
36 58
36 59
36 60
36 61
36 62
36 63
36 66
36 67
36 68
37 38
37 39
37 40
37 43
37 45
37 46
37 47
37 49
37 50
37 51
37 52
37 56
37 57
37 58
37 59
37 62
37 64
37 66
37 67
37 69
38 39
38 40
38 41
38 42
38 43
38 46
38 47
38 48
38 49
38 50
38 51
38 53
38 55
38 56
38 57
38 58
38 59
38 60
38 61
38 62
38 63
38 64
38 65
38 66
38 67
38 68
38 69
39 40
39 41
39 42
39 44
39 50
39 51
39 53
39 54
39 58
39 59
39 60
39 61
39 62
39 63
39 64
39 65
39 66
39 67
39 68
40 42
40 43
40 46
40 47
40 48
40 50
40 55
40 56
40 60
40 61
40 63
40 65
40 66
40 68
40 69
41 42
41 45
41 49
41 50
41 51
41 53
41 55
41 56
41 58
41 60
41 64
41 69
42 43
42 44
42 45
42 47
42 48
42 49
42 51
42 52
42 53
42 54
42 59
42 60
42 61
42 62
42 63
42 64
42 65
42 68
42 69
43 44
43 46
43 47
43 50
43 51
43 57
43 58
43 59
43 61
43 62
43 63
43 65
43 66
43 67
43 68
43 69
44 47
44 49
44 50
44 52
44 53
44 54
44 55
44 56
44 57
44 60
44 61
44 62
44 63
44 65
44 66
44 67
44 68
45 47
45 48
45 49
45 50
45 51
45 52
45 55
45 57
45 59
45 60
45 62
45 63
45 64
45 65
45 66
45 67
45 68
46 47
46 49
46 50
46 51
46 52
46 53
46 56
46 58
46 60
46 64
46 66
46 67
46 68
46 69
47 48
47 49
47 50
47 52
47 55
47 57
47 59
47 60
47 63
47 65
47 66
47 68
48 51
48 52
48 55
48 56
48 59
48 61
48 65
48 67
48 68
48 69
49 50
49 51
49 52
49 53
49 55
49 59
49 61
49 64
49 68
49 69
50 52
50 53
50 54
50 55
50 58
50 60
50 63
50 64
50 65
50 66
50 69
51 52
51 53
51 54
51 55
51 56
51 58
51 60
51 62
51 63
51 64
51 65
51 67
52 53
52 54
52 56
52 58
52 59
52 61
52 62
52 66
52 67
52 68
53 54
53 55
53 56
53 57
53 60
53 63
53 64
53 65
53 66
53 68
54 55
54 56
54 57
54 59
54 64
54 65
54 66
54 68
55 56
55 58
55 60
55 63
55 65
55 66
56 57
56 61
56 62
56 63
56 64
56 65
56 66
56 67
56 69
57 65
57 66
57 68
57 69
58 61
58 63
58 64
58 65
58 67
58 68
59 60
59 61
59 62
59 63
59 64
59 67
59 68
59 69
60 62
60 64
60 65
60 67
60 68
60 69
61 62
61 64
61 65
61 66
61 67
61 68
61 69
62 63
62 64
62 68
63 65
63 66
63 68
63 69
64 65
64 66
64 67
64 68
64 69
65 67
65 68
65 69
66 68
66 69
67 68
67 69
68 69
46 5 37 30 62 16 20
8 0 60 10 45 58 55
36 50 41 49 21 63 66
17 34 31 25 64 57 51
29 14 11 69 3 47 2
27 35 40 56 68 19 33
9 18 22 39 61 67 1
65 15 13 32 26 28 38
44 42 4 7 59 48 6
54 53 12 43 23 52 24
